c pcminimize - minimizing a CNF with respect to propagation completeness by iterative removing of absorbed clauses.
c Petr Kucera, 2016-2021
c Version 2.7, revision 59, git hash 4910a71, date 2024-07-16 20:17:42 +0200
p cnf 423 670
251 -252 0
205 -252 0
198 -253 0
-205 -253 0
252 253 -254 0
254 -255 0
89 -255 0
205 -256 0
251 -256 0
256 -257 0
-89 -257 0
255 257 -258 0
258 -259 0
82 -259 0
259 -260 0
245 -260 0
-198 -261 0
205 -261 0
261 -263 0
262 -263 0
263 -265 0
264 -265 0
265 -266 0
-245 -266 0
260 266 -267 0
213 -268 0
152 -268 0
269 -270 0
-152 -270 0
268 270 -271 0
-206 -272 0
2 -272 0
273 -274 0
-2 -274 0
272 274 -275 0
267 -276 0
271 -276 0
275 -276 0
-32 -276 0
276 -278 0
277 -278 0
278 -279 0
124 -279 0
82 -280 0
251 -280 0
280 -281 0
245 -281 0
-198 -282 0
264 -282 0
282 -283 0
-245 -283 0
281 283 -284 0
152 -285 0
213 -285 0
285 -286 0
32 -286 0
271 -287 0
-32 -287 0
286 287 -288 0
-89 -289 0
205 -289 0
206 -289 0
-231 -289 0
284 -290 0
288 -290 0
289 -290 0
290 -291 0
-124 -291 0
279 291 -292 0
182 -293 0
195 -293 0
294 -295 0
-195 -295 0
293 295 -296 0
296 -297 0
297 -299 0
298 -299 0
299 -300 0
109 -300 0
182 -301 0
195 -301 0
301 -303 0
302 -303 0
303 -304 0
-109 -304 0
300 304 -305 0
-10 -306 0
62 -306 0
-129 -306 0
-136 -306 0
-142 -306 0
-197 -306 0
221 -306 0
-228 -306 0
307 -309 0
308 -309 0
292 -310 0
305 -310 0
306 -310 0
309 -310 0
310 -311 0
75 -311 0
-152 -312 0
269 -312 0
312 -313 0
142 -313 0
271 -314 0
-142 -314 0
313 314 -315 0
267 -316 0
315 -316 0
-32 -316 0
316 -317 0
273 -317 0
277 -317 0
317 -318 0
124 -318 0
152 -319 0
213 -319 0
319 -320 0
32 -320 0
315 -321 0
-32 -321 0
320 321 -322 0
-89 -323 0
205 -323 0
206 -323 0
-231 -323 0
322 -324 0
284 -324 0
323 -324 0
324 -325 0
-124 -325 0
318 325 -326 0
-2 -327 0
-136 -327 0
-197 -327 0
326 -328 0
296 -328 0
327 -328 0
328 -329 0
62 -329 0
330 -331 0
89 -331 0
205 -332 0
-89 -332 0
331 332 -333 0
333 -334 0
315 -334 0
275 -334 0
-32 -334 0
334 -335 0
277 -335 0
335 -336 0
124 -336 0
322 -337 0
289 -337 0
337 -338 0
-124 -338 0
336 338 -339 0
339 -340 0
136 -340 0
333 -341 0
315 -341 0
-32 -341 0
341 -342 0
273 -342 0
277 -342 0
342 -343 0
124 -343 0
322 -344 0
323 -344 0
344 -345 0
-124 -345 0
343 345 -346 0
346 -347 0
-2 -347 0
347 -348 0
-136 -348 0
340 348 -349 0
-182 -350 0
-195 -350 0
197 -350 0
350 -351 0
207 -351 0
296 -353 0
352 -353 0
353 -354 0
-207 -354 0
351 354 -355 0
349 -356 0
355 -356 0
284 -356 0
356 -357 0
-62 -357 0
329 357 -358 0
-228 -359 0
59 -359 0
360 -361 0
-59 -361 0
359 361 -362 0
362 -363 0
12 -363 0
308 -364 0
360 -364 0
364 -365 0
-12 -365 0
363 365 -366 0
358 -368 0
366 -368 0
367 -368 0
368 -369 0
-75 -369 0
370 -371 0
165 -372 0
12 -373 0
-62 -373 0
136 -373 0
339 -375 0
362 -375 0
355 -375 0
284 -375 0
373 -375 0
374 -375 0
-165 -376 0
151 -378 0
379 -380 0
-151 -380 0
-166 -382 0
382 -383 0
27 -383 0
166 -384 0
119 -384 0
385 -386 0
-119 -386 0
387 -388 0
-27 -388 0
391 -395 0
392 -395 0
393 -395 0
394 -395 0
377 -396 0
381 -396 0
389 -396 0
395 -396 0
-1 0
3 0
-4 0
-5 0
-6 0
7 0
8 0
-9 0
11 0
-13 0
14 0
15 0
16 0
-17 0
18 0
19 0
20 0
21 0
-22 0
-23 0
24 0
-25 0
-26 0
28 0
29 0
30 0
-31 0
-33 0
34 0
35 0
-36 0
-37 0
38 0
39 0
40 0
41 0
42 0
43 0
-44 0
45 0
-46 0
47 0
48 0
49 0
-50 0
-51 0
52 0
53 0
54 0
-55 0
-56 0
-57 0
-58 0
-60 0
61 0
-63 0
64 0
-65 0
-66 0
-67 0
68 0
69 0
-70 0
-71 0
72 0
73 0
-74 0
-76 0
-77 0
-78 0
79 0
-80 0
-81 0
-83 0
-84 0
-85 0
86 0
-87 0
-88 0
90 0
-91 0
92 0
93 0
-94 0
-95 0
96 0
-97 0
98 0
99 0
-100 0
-101 0
-102 0
103 0
104 0
-105 0
-106 0
107 0
-110 0
-111 0
-112 0
113 0
-114 0
-115 0
-116 0
117 0
-118 0
-120 0
-121 0
-122 0
123 0
125 0
126 0
-127 0
128 0
130 0
131 0
132 0
-133 0
-134 0
135 0
-137 0
-138 0
139 0
141 0
-143 0
145 0
-146 0
147 0
148 0
149 0
150 0
153 0
-154 0
-156 0
157 0
159 0
160 0
161 0
162 0
-164 0
167 0
168 0
169 0
-170 0
-171 0
172 0
173 0
174 0
-175 0
176 0
177 0
178 0
-179 0
181 0
183 0
184 0
185 0
-186 0
187 0
188 0
189 0
190 0
-191 0
192 0
193 0
194 0
196 0
199 0
-200 0
-201 0
-202 0
-203 0
204 0
-208 0
-209 0
-210 0
-211 0
212 0
-214 0
-215 0
-216 0
218 0
219 0
220 0
222 0
-223 0
-224 0
225 0
-226 0
-227 0
-229 0
-230 0
232 0
233 0
234 0
235 0
-236 0
-237 0
238 0
-239 0
240 0
241 0
-242 0
-243 0
244 0
-246 0
247 0
248 0
-249 0
250 0
-422 423 0
-407 408 0
-413 414 0
-397 399 0
200 403 0
-419 420 0
-322 324 337 344 0
-316 317 0
-371 372 0
-75 311 0
-411 413 0
-308 309 364 0
-349 356 0
-27 383 0
-307 309 0
-259 260 0
-62 306 329 0
-231 277 0
109 304 0
-59 308 359 0
-302 303 0
-286 288 0
-379 380 0
-417 418 0
-294 295 0
-299 300 0
182 294 350 0
-136 340 373 0
-310 311 0
-195 293 301 0
-341 342 0
124 291 325 338 345 0
-325 326 0
-228 360 0
-288 290 0
-298 299 0
-287 288 0
-331 333 0
-415 416 0
-124 279 318 336 343 0
-264 265 282 0
82 264 0
217 298 0
-261 263 0
-318 326 0
152 270 312 0
-263 265 0
-251 252 256 280 0
2 274 289 327 347 0
-321 322 0
-301 303 0
10 306 0
151 380 0
-82 259 264 280 0
-326 328 0
-275 276 334 0
-317 318 0
-265 266 0
129 306 0
119 382 386 0
-314 315 0
-345 346 0
180 302 0
198 251 261 282 0
-262 263 0
-313 315 0
-368 369 0
-267 276 316 0
245 266 283 0
-252 254 0
-142 313 0
-409 410 0
-32 286 320 0
-268 271 0
-346 347 0
-300 305 0
-337 338 0
-253 254 0
-273 274 317 342 0
-254 255 0
-278 279 0
-258 259 0
-152 268 285 319 0
-336 339 0
-303 304 0
-365 366 0
-256 257 0
-418 419 0
-311 370 0
-2 272 0
-260 267 0
136 306 327 348 0
-245 260 281 0
-277 278 317 335 342 0
89 257 262 289 323 332 0
-257 258 0
-269 270 312 0
-270 271 0
-405 406 0
207 306 327 354 0
-347 348 0
-271 276 287 314 0
-340 349 0
-282 283 0
156 412 0
-266 267 0
-323 324 344 0
206 272 273 0
-304 305 0
-335 336 0
59 308 361 0
-291 292 0
-319 320 0
-272 275 0
205 253 330 0
228 306 359 360 0
-342 343 0
-295 296 0
-284 290 324 356 375 0
142 306 314 319 0
-280 281 0
32 276 287 316 321 334 341 0
-387 388 0
-206 273 289 323 0
-89 255 262 331 0
-360 361 364 0
-274 275 0
12 307 365 0
-358 368 0
-296 297 328 353 0
-357 358 0
-324 325 0
-123 421 0
-297 299 0
-385 386 0
-404 405 0
-390 396 0
231 277 289 323 0
-328 329 0
-289 290 337 0
-281 284 0
-283 284 0
-213 268 269 285 319 0
-329 358 0
-330 331 0
27 388 0
-332 333 0
-306 310 0
62 357 373 0
-333 334 341 0
158 371 374 0
-334 335 0
-338 339 0
-401 402 0
-339 340 375 0
-343 346 0
-344 345 0
-406 407 0
-348 349 0
-276 278 0
-197 350 352 0
-370 371 0
-350 351 0
-285 286 0
-207 351 0
-290 291 0
-352 353 0
83 401 0
-353 354 0
-354 355 0
-355 356 375 0
-309 310 0
213 269 0
-356 357 0
-359 362 0
-361 362 0
-362 363 375 0
-305 310 0
-366 368 0
-103 415 0
195 295 350 0
-382 383 0
-327 328 0
-221 306 0
-367 368 0
-369 370 0
-421 422 0
-320 322 0
-373 375 0
65 398 0
-158 374 0
-386 387 0
-374 375 0
-315 316 321 334 341 0
-375 376 0
-292 310 0
-364 365 0
-151 378 0
-160 417 0
67 397 0
-144 379 0
211 409 0
-351 355 0
-119 384 0
-363 366 0
-312 313 0
-180 297 302 367 373 0
-293 296 0
191 404 0
-193 411 0
-198 251 253 0
-399 400 0
-279 292 0
-255 258 0
-126 390 0
